# Solution for model GasLib-40
# Objective value = 1.4527587028865170e+01
loadshed[innode_1] 0
loadshed[innode_2] 0
loadshed[innode_3] 0
loadshed[innode_4] 0
loadshed[innode_5] 0
loadshed[innode_6] 0
loadshed[innode_7] 0
loadshed[innode_8] 0
loadshed[source_1] -2.1899317867088985e-01
loadshed[source_2] -4.8322488703545385e-02
loadshed[source_3] 3.5920991433920657e-01
loadshed[sink_1] 0
loadshed[sink_2] 0
loadshed[sink_3] 0
loadshed[sink_4] 0
loadshed[sink_5] 0
loadshed[sink_6] 0
loadshed[sink_7] 0
loadshed[sink_8] 0
loadshed[sink_9] 0
loadshed[sink_10] 0
loadshed[sink_11] 0
loadshed[sink_12] 8.8831105399430332e-01
loadshed[sink_13] 0
loadshed[sink_14] 0
loadshed[sink_15] 0
loadshed[sink_16] 0
loadshed[sink_17] 0
loadshed[sink_18] 0
loadshed[sink_19] 0
loadshed[sink_20] 0
loadshed[sink_21] 0
loadshed[sink_22] 0
loadshed[sink_23] 0
loadshed[sink_24] 0
loadshed[sink_25] 0
loadshed[sink_26] 0
loadshed[sink_27] 0
loadshed[sink_28] 0
loadshed[sink_29] 0
flow[source_1,sink_3] 1.9271097022529727e+02
flow[innode_1,sink_16] 1.6354166666666970e+01
flow[innode_6,sink_13] 1.3176484027319420e+01
flow[sink_13,sink_14] -3.1776826393472479e+00
flow[sink_14,sink_10] -1.9531849306013783e+01
flow[sink_25,sink_26] 1.8191396693368353e+02
flow[sink_26,sink_9] 1.6536824630447376e+02
flow[sink_9,sink_18] 1.4901407963780710e+02
flow[sink_26,sink_4] 1.9155396254302559e-01
flow[sink_4,sink_20] -1.6162612704123489e+01
flow[sink_18,sink_6] 1.3265991297114044e+02
flow[sink_25,innode_8] -1.6000263689196092e+02
flow[sink_6,sink_7] 8.3597412971139875e+01
flow[sink_6,sink_22] 3.2708333333333641e+01
flow[sink_7,sink_24] 3.4534912971134837e+01
flow[sink_22,sink_1] 1.6354166666666970e+01
flow[sink_24,sink_21] 1.8180746304468165e+01
flow[sink_21,sink_12] 1.8265796378014978e+00
flow[sink_7,sink_5] 3.2708333333338757e+01
flow[sink_5,sink_17] 1.6354166666672086e+01
flow[sink_17,sink_4] 0
flow[sink_17,sink_8] 0
flow[sink_3,sink_23] 16.3541666666697
flow[sink_8,sink_20] -1.6354166666668334e+01
flow[sink_25,sink_20] 4.8870946037458225e+01
flow[sink_25,sink_15] -1.0031292677316692e+02
flow[sink_15,sink_29] -6.4783024467831666e+01
flow[sink_29,sink_28] 1.6354166666667879e+01
flow[sink_29,sink_2] 6.8238235638668570e+01
flow[sink_2,sink_15] 51.8840689720019
flow[sink_29,innode_7] -1.6572959343983479e+02
flow[innode_4,sink_19] 1.0130268263936085e+02
flow[sink_19,innode_3] 3.3473752924744055e+01
flow[innode_4,innode_5] 0
flow[sink_27,innode_5] 0
flow[sink_27,sink_19] -1.6354166666679703e+01
flow[sink_10,sink_11] 3.2708333333333641e+01
flow[sink_10,innode_2] -3.5120596381270431e+01
flow[sink_10,innode_3] -3.3473752924744055e+01
flow[innode_6,sink_25] -1.3176484027319420e+01
flow[sink_11,innode_1] 1.6354166666666970e+01
flow[sink_19,innode_2] 3.5120596381270431e+01
flow[source_3,innode_4] 1.0130268263936085e+02
flow[source_2,innode_7] 1.6572959343983479e+02
flow[sink_3,innode_8] 1.6000263689196092e+02
pressure[innode_1] 7.4901250326405574e+01
pressure[innode_2] 7.6909220205572964e+01
pressure[innode_3] 7.6835096370212440e+01
pressure[innode_4] 81.01325
pressure[innode_5] 7.6558090208429462e+01
pressure[innode_6] 7.4196075608088478e+01
pressure[innode_7] 81.01325
pressure[innode_8] 8.0369090844795821e+01
pressure[source_1] 81.01325
pressure[source_2] 81.01325
pressure[source_3] 81.01325
pressure[sink_1] 4.0450999597258587e+01
pressure[sink_2] 7.4852081100173436e+01
pressure[sink_3] 8.0369090844795821e+01
pressure[sink_4] 6.1359627082535958e+01
pressure[sink_5] 2.7801343939834439e+01
pressure[sink_6] 4.2552077207645958e+01
pressure[sink_7] 4.1404483993625547e+01
pressure[sink_8] 6.1405736078969646e+01
pressure[sink_9] 5.1486265404079774e+01
pressure[sink_10] 7.5052951634009119e+01
pressure[sink_11] 7.4901250326405574e+01
pressure[sink_12] 1.01325
pressure[sink_13] 74.1234358536409
pressure[sink_14] 7.4129122587402733e+01
pressure[sink_15] 7.4682691050044468e+01
pressure[sink_16] 73.8796004915879
pressure[sink_17] 2.6583076734479327e+01
pressure[sink_18] 4.6094491864443349e+01
pressure[sink_19] 7.6909220205572964e+01
pressure[sink_20] 6.2545391502557933e+01
pressure[sink_21] 1.6632470042227512e+00
pressure[sink_22] 41.5147687396136
pressure[sink_23] 8.0204372833136034e+01
pressure[sink_24] 1.8645818776168483e+00
pressure[sink_25] 7.4196075608088478e+01
pressure[sink_26] 6.1383981749097465e+01
pressure[sink_27] 7.6558090208429462e+01
pressure[sink_28] 7.6285350346803625e+01
pressure[sink_29] 7.6580632620420815e+01
interdiction[source_1,sink_3] 0
interdiction[innode_1,sink_16] 0
interdiction[innode_6,sink_13] 0
interdiction[sink_13,sink_14] 0
interdiction[sink_14,sink_10] 0
interdiction[sink_25,sink_26] 0
interdiction[sink_26,sink_9] 0
interdiction[sink_9,sink_18] 0
interdiction[sink_26,sink_4] 0
interdiction[sink_4,sink_20] 0
interdiction[sink_18,sink_6] 0
interdiction[sink_25,innode_8] 0
interdiction[sink_6,sink_7] 0
interdiction[sink_6,sink_22] 0
interdiction[sink_7,sink_24] 0
interdiction[sink_22,sink_1] 0
interdiction[sink_24,sink_21] 0
interdiction[sink_21,sink_12] 0
interdiction[sink_7,sink_5] 0
interdiction[sink_5,sink_17] 0
interdiction[sink_17,sink_4] 1
interdiction[sink_17,sink_8] 1
interdiction[sink_3,sink_23] 0
interdiction[sink_8,sink_20] 0
interdiction[sink_25,sink_20] 0
interdiction[sink_25,sink_15] 0
interdiction[sink_15,sink_29] 0
interdiction[sink_29,sink_28] 0
interdiction[sink_29,sink_2] 0
interdiction[sink_2,sink_15] 0
interdiction[sink_29,innode_7] 0
interdiction[innode_4,sink_19] 0
interdiction[sink_19,innode_3] 0
interdiction[innode_4,innode_5] 1
interdiction[sink_27,innode_5] 0
interdiction[sink_27,sink_19] 0
interdiction[sink_10,sink_11] 0
interdiction[sink_10,innode_2] 0
interdiction[sink_10,innode_3] 0
interdiction[innode_6,sink_25] 0
interdiction[sink_11,innode_1] 0
interdiction[sink_19,innode_2] 0
interdiction[source_3,innode_4] 0
interdiction[source_2,innode_7] 0
interdiction[sink_3,innode_8] 0
WCcheckFlow[source_1,sink_3] 39
WCcheckFlow[innode_1,sink_16] 1
WCcheckFlow[innode_6,sink_13] 13
WCcheckFlow[sink_13,sink_14] 12
WCcheckFlow[sink_14,sink_10] 11
WCcheckFlow[sink_25,sink_26] 15
WCcheckFlow[sink_26,sink_9] 11
WCcheckFlow[sink_9,sink_18] 10
WCcheckFlow[sink_26,sink_4] 3
WCcheckFlow[sink_4,sink_20] 2
WCcheckFlow[sink_18,sink_6] 9
WCcheckFlow[sink_25,innode_8] -36
WCcheckFlow[sink_6,sink_7] 6
WCcheckFlow[sink_6,sink_22] 2
WCcheckFlow[sink_7,sink_24] 3
WCcheckFlow[sink_22,sink_1] 1
WCcheckFlow[sink_24,sink_21] 2
WCcheckFlow[sink_21,sink_12] 1
WCcheckFlow[sink_7,sink_5] 2
WCcheckFlow[sink_5,sink_17] 1
WCcheckFlow[sink_17,sink_4] 0
WCcheckFlow[sink_17,sink_8] 0
WCcheckFlow[sink_3,sink_23] 1
WCcheckFlow[sink_8,sink_20] -1
WCcheckFlow[sink_25,sink_20] 0
WCcheckFlow[sink_25,sink_15] 6
WCcheckFlow[sink_15,sink_29] 5
WCcheckFlow[sink_29,sink_28] 1
WCcheckFlow[sink_29,sink_2] 1
WCcheckFlow[sink_2,sink_15] 0
WCcheckFlow[sink_29,innode_7] 2
WCcheckFlow[innode_4,sink_19] -2
WCcheckFlow[sink_19,innode_3] -5
WCcheckFlow[innode_4,innode_5] 0
WCcheckFlow[sink_27,innode_5] 1
WCcheckFlow[sink_27,sink_19] -2
WCcheckFlow[sink_10,sink_11] 3
WCcheckFlow[sink_10,innode_2] 1
WCcheckFlow[sink_10,innode_3] 6
WCcheckFlow[innode_6,sink_25] -14
WCcheckFlow[sink_11,innode_1] 2
WCcheckFlow[sink_19,innode_2] 0
WCcheckFlow[source_3,innode_4] -1
WCcheckFlow[source_2,innode_7] -1
WCcheckFlow[sink_3,innode_8] 37
